db/inputs/1532163412288236329398183162128023745.smt2
(set-logic QF_FP)
(declare-const x0 (_ FloatingPoint 11 53))
(declare-const x1 (_ FloatingPoint 11 53))
(declare-const x2 (_ FloatingPoint 11 53))
(declare-const x3 (_ FloatingPoint 11 53))
(declare-const x4 (_ FloatingPoint 11 53))
(assert (fp.lt (fp.sub RNE (fp.neg x1) (fp.mul RNE x4 x1)) (fp.div RNE (fp.add RNE x1 x3) (fp.div RNE x1 x3))))
(assert (fp.leq (fp.add RNE (fp.add RNE x1 x1) (fp.mul RNE x0 x0)) (fp.div RNE (fp.add RNE x4 x2) (fp.add RNE x4 x1))))
(assert (fp.leq (fp.neg (fp.div RNE x3 x0)) (fp.add RNE (fp.add RNE x1 x3) (fp.mul RNE x0 x0))))
(check-sat)
