db/data/1532163412288236329398183162128023745.z3.out
sat
-------------------
464.270725336
